10
1 0 7
2 0 3
2 1 2
3 0 4
3 1 10
3 2 10
4 0 6
4 1 4
4 2 7
4 3 7
5 0 3
5 1 4
5 2 3
5 3 7
5 4 3
6 0 9
6 1 9
6 2 5
6 3 8
6 4 3
6 5 2
7 0 1
7 1 7
7 2 1
7 3 5
7 4 9
7 5 8
7 6 3
8 0 6
8 1 3
8 2 10
8 3 3
8 4 7
8 5 5
8 6 4
8 7 8
9 0 10
9 1 10
9 2 3
9 3 5
9 4 9
9 5 5
9 6 6
9 7 10
9 8 5
